Route #1: 23 61 100
Route #2: 39 10 18
Route #3: 93 75
Route #4: 38 47 26 48 96 64 34
Route #5: 80 94 56 21
Route #6: 5 12 58
Route #7: 1 70 54
Route #8: 40 88 67 44
Route #9: 57 72 36 29 43 45 2 7
Route #10: 27 97 19
Route #11: 15 22 41 20
Route #12: 50 91 52
Route #13: 63 77 3
Route #14: 35 46 31
Route #15: 32 33 53 73 95 24
Route #16: 76 55 16 69
Route #17: 68 90 84 66
Route #18: 25 65 78 42 28
Route #19: 71 62 99 98 89
Route #20: 82 60 59
Route #21: 74 13 4
Route #22: 30 85 11 79
Route #23: 8 17
Route #24: 83 51 81
Route #25: 87 37 6 49 14
Route #26: 92 9 86
Cost 27591.0000
Time 16.0004